robust/generate/spp_dkp_Lefebvre_et_al_2026/src/shortest_path_6_6.kp
48
108

[0.08 4.01 1.28 1.35 3.56 1.46 3.89 2.01 2.47 1.61 0.51 0.64 2.0 3.29 2.07 2.67 1.52 2.04 0.84 1.84 0.59 0.17 0.37 0.96]

[51 25 23 10 33 67 78 75 83 33 49 92 36 9 83 63 48 74 13 86 27 42 22 74]
